32      4       
13      18      17      15      
0       0       0       0       0       1       2       
9       0       0       0       0       1       3       
4       0       9       0       0       2       4       8       
5       0       1       0       7       1       5       
6       7       0       0       0       2       6       7       
4       9       0       0       0       2       9       12      
5       6       0       0       0       1       10      
10      0       0       6       0       1       9       
4       0       0       0       0       2       11      13      
3       0       12      0       6       2       11      13      
4       0       7       0       0       3       14      15      17      
7       0       0       0       0       3       14      15      17      
5       0       0       15      5       1       14      
2       0       0       0       0       3       16      18      24      
5       10      0       0       0       2       16      24      
3       0       3       13      0       3       19      20      22      
10      0       0       0       4       3       19      20      23      
5       0       6       0       0       3       20      22      23      
10      0       0       7       0       1       21      
5       0       0       0       0       1       25      
8       0       0       0       0       1       25      
5       0       0       0       0       1       25      
5       1       0       0       10      1       25      
3       0       0       0       5       1       25      
1       1       0       0       0       2       26      27      
1       0       0       0       0       2       28      29      
4       0       0       17      0       1       28      
2       0       0       0       0       2       30      31      
9       0       0       1       0       1       30      
6       0       0       0       0       1       32      
8       0       0       0       0       1       32      
0       0       0       0       0       0       
